NAME          
ROWS
 N  OBJ
 L  c1_1
 G  c1
COLUMNS
    MARKER    'MARKER'                 'INTORG'
    x         c1_1      1
    x         c1        1
RHS
    rhs       c1_1      0
    rhs       c1        0
RANGES
BOUNDS
 FX bounds    x         1
ENDATA
